p cnf 7230 17
1590 3932 3962 4629 0
1590 3922 3934 3958 -4630 0
-1590 -4631 0
-3436 -3452 -3876 4632 0
3436 -4633 0
-3922 -4631 0
3452 -4633 0
-3934 -4631 0
4634 4635 0
3918 -4635 0
-3918 -4634 0
-4632 4633 0
4630 4631 0
3876 -4633 0
-3958 -4631 0
4628 -4629 0
-4628 4629 0
